solution status: optimal solution found
objective value:                     121466.838051011
d11(0,0)                                            1 	(obj:0)
d11(1,1)                                            1 	(obj:0)
d11(1,2)                                            1 	(obj:0)
d11(2,3)                                            1 	(obj:0)
d11(2,5)                                            1 	(obj:0)
d11(2,6)                                            1 	(obj:0)
d11(3,9)                                            1 	(obj:0)
d11(3,11)                                           1 	(obj:0)
d11(3,13)                                           1 	(obj:0)
d12(3,8)                                            1 	(obj:0)
d12(3,10)                                           1 	(obj:0)
d12(3,12)                                           1 	(obj:0)
d12(3,14)                                           1 	(obj:0)
d21(2,3)                                            1 	(obj:0)
d21(3,7)                                            1 	(obj:0)
d21(3,8)                                            1 	(obj:0)
d21(3,11)                                           1 	(obj:0)
WB(2)                                3315.65537776224 	(obj:0)
y2(3,8)                              1385.48851144895 	(obj:0)
y2(3,10)                             1385.48851144895 	(obj:0)
y2(3,12)                             1385.48851144895 	(obj:0)
y2(3,14)                             1385.48851144895 	(obj:0)
STE(1,1)                             4409.99999999983 	(obj:0)
STE(0,0)                                         7875 	(obj:0)
STE(1,2)                             6068.24989888865 	(obj:0)
STE(2,3)                             2121.75010111102 	(obj:0)
STE(2,4)                             3779.99999999983 	(obj:0)
STE(2,5)                             3779.99999999983 	(obj:0)
STE(2,6)                             5438.24989888871 	(obj:0)
STE(3,7)                             1491.75010111102 	(obj:0)
STE(3,8)                             2807.96418698752 	(obj:0)
STE(3,9)                                         3150 	(obj:0)
STE(3,10)                            4466.21408587634 	(obj:0)
STE(3,11)                            3149.99999999983 	(obj:0)
STE(3,12)                            4466.21408587634 	(obj:0)
STE(3,13)                            4808.24989888865 	(obj:0)
STE(3,14)                            6124.46398476522 	(obj:0)
AVE(2)                               3315.65537776224 	(obj:0)
WB(3)                                3315.65799770399 	(obj:0)
y1(1,1)                              2551.50000000015 	(obj:0)
y1(1,2)                              1059.07509100021 	(obj:0)
y1(2,3)                              1492.42490899994 	(obj:0)
y1(2,5)                              1492.42490899994 	(obj:0)
AVE(3)                               3315.65799770399 	(obj:0)
WG(1)                                3248.33172520918 	(obj:10)
BG(1)                                2028.64964213795 	(obj:10)
BG(2)                                4196.29249897959 	(obj:10)
BG(3)                                2673.40993877551 	(obj:10)
AVE(1)                               3248.33172520918 	(obj:0)
